p wcnf 400 232 1000
1000 10 1 2 3 4 5 6 7 8 9 10 11 12 13 14 15 16 17 18 19 20  0
1000 10 -1 -2 -3 -4 -5 -6 -7 -8 -9 -10 -11 -12 -13 -14 -15 -16 -17 -18 -19 -20  0
1000 6 21 22 23 24 25 26 27 28 29 30 31 32 33 34 35 36 37 38 39 40  0
1000 14 -21 -22 -23 -24 -25 -26 -27 -28 -29 -30 -31 -32 -33 -34 -35 -36 -37 -38 -39 -40  0
1000 10 41 42 43 44 45 46 47 48 49 50 51 52 53 54 55 56 57 58 59 60  0
1000 10 -41 -42 -43 -44 -45 -46 -47 -48 -49 -50 -51 -52 -53 -54 -55 -56 -57 -58 -59 -60  0
1000 11 61 62 63 64 65 66 67 68 69 70 71 72 73 74 75 76 77 78 79 80  0
1000 9 -61 -62 -63 -64 -65 -66 -67 -68 -69 -70 -71 -72 -73 -74 -75 -76 -77 -78 -79 -80  0
1000 12 81 82 83 84 85 86 87 88 89 90 91 92 93 94 95 96 97 98 99 100  0
1000 8 -81 -82 -83 -84 -85 -86 -87 -88 -89 -90 -91 -92 -93 -94 -95 -96 -97 -98 -99 -100  0
1000 13 101 102 103 104 105 106 107 108 109 110 111 112 113 114 115 116 117 118 119 120  0
1000 7 -101 -102 -103 -104 -105 -106 -107 -108 -109 -110 -111 -112 -113 -114 -115 -116 -117 -118 -119 -120  0
1000 10 121 122 123 124 125 126 127 128 129 130 131 132 133 134 135 136 137 138 139 140  0
1000 10 -121 -122 -123 -124 -125 -126 -127 -128 -129 -130 -131 -132 -133 -134 -135 -136 -137 -138 -139 -140  0
1000 10 141 142 143 144 145 146 147 148 149 150 151 152 153 154 155 156 157 158 159 160  0
1000 10 -141 -142 -143 -144 -145 -146 -147 -148 -149 -150 -151 -152 -153 -154 -155 -156 -157 -158 -159 -160  0
1000 11 161 162 163 164 165 166 167 168 169 170 171 172 173 174 175 176 177 178 179 180  0
1000 9 -161 -162 -163 -164 -165 -166 -167 -168 -169 -170 -171 -172 -173 -174 -175 -176 -177 -178 -179 -180  0
1000 10 181 182 183 184 185 186 187 188 189 190 191 192 193 194 195 196 197 198 199 200  0
1000 10 -181 -182 -183 -184 -185 -186 -187 -188 -189 -190 -191 -192 -193 -194 -195 -196 -197 -198 -199 -200  0
1000 11 201 202 203 204 205 206 207 208 209 210 211 212 213 214 215 216 217 218 219 220  0
1000 9 -201 -202 -203 -204 -205 -206 -207 -208 -209 -210 -211 -212 -213 -214 -215 -216 -217 -218 -219 -220  0
1000 12 221 222 223 224 225 226 227 228 229 230 231 232 233 234 235 236 237 238 239 240  0
1000 8 -221 -222 -223 -224 -225 -226 -227 -228 -229 -230 -231 -232 -233 -234 -235 -236 -237 -238 -239 -240  0
1000 10 241 242 243 244 245 246 247 248 249 250 251 252 253 254 255 256 257 258 259 260  0
1000 10 -241 -242 -243 -244 -245 -246 -247 -248 -249 -250 -251 -252 -253 -254 -255 -256 -257 -258 -259 -260  0
1000 8 261 262 263 264 265 266 267 268 269 270 271 272 273 274 275 276 277 278 279 280  0
1000 12 -261 -262 -263 -264 -265 -266 -267 -268 -269 -270 -271 -272 -273 -274 -275 -276 -277 -278 -279 -280  0
1000 7 281 282 283 284 285 286 287 288 289 290 291 292 293 294 295 296 297 298 299 300  0
1000 13 -281 -282 -283 -284 -285 -286 -287 -288 -289 -290 -291 -292 -293 -294 -295 -296 -297 -298 -299 -300  0
1000 13 301 302 303 304 305 306 307 308 309 310 311 312 313 314 315 316 317 318 319 320  0
1000 7 -301 -302 -303 -304 -305 -306 -307 -308 -309 -310 -311 -312 -313 -314 -315 -316 -317 -318 -319 -320  0
1000 8 321 322 323 324 325 326 327 328 329 330 331 332 333 334 335 336 337 338 339 340  0
1000 12 -321 -322 -323 -324 -325 -326 -327 -328 -329 -330 -331 -332 -333 -334 -335 -336 -337 -338 -339 -340  0
1000 12 341 342 343 344 345 346 347 348 349 350 351 352 353 354 355 356 357 358 359 360  0
1000 8 -341 -342 -343 -344 -345 -346 -347 -348 -349 -350 -351 -352 -353 -354 -355 -356 -357 -358 -359 -360  0
1000 11 361 362 363 364 365 366 367 368 369 370 371 372 373 374 375 376 377 378 379 380  0
1000 9 -361 -362 -363 -364 -365 -366 -367 -368 -369 -370 -371 -372 -373 -374 -375 -376 -377 -378 -379 -380  0
1000 12 381 382 383 384 385 386 387 388 389 390 391 392 393 394 395 396 397 398 399 400  0
1000 8 -381 -382 -383 -384 -385 -386 -387 -388 -389 -390 -391 -392 -393 -394 -395 -396 -397 -398 -399 -400  0
1000 11 1 21 41 61 81 101 121 141 161 181 201 221 241 261 281 301 321 341 361 381  0
1000 9 -1 -21 -41 -61 -81 -101 -121 -141 -161 -181 -201 -221 -241 -261 -281 -301 -321 -341 -361 -381  0
1000 9 2 22 42 62 82 102 122 142 162 182 202 222 242 262 282 302 322 342 362 382  0
1000 11 -2 -22 -42 -62 -82 -102 -122 -142 -162 -182 -202 -222 -242 -262 -282 -302 -322 -342 -362 -382  0
1000 6 3 23 43 63 83 103 123 143 163 183 203 223 243 263 283 303 323 343 363 383  0
1000 14 -3 -23 -43 -63 -83 -103 -123 -143 -163 -183 -203 -223 -243 -263 -283 -303 -323 -343 -363 -383  0
1000 8 4 24 44 64 84 104 124 144 164 184 204 224 244 264 284 304 324 344 364 384  0
1000 12 -4 -24 -44 -64 -84 -104 -124 -144 -164 -184 -204 -224 -244 -264 -284 -304 -324 -344 -364 -384  0
1000 9 5 25 45 65 85 105 125 145 165 185 205 225 245 265 285 305 325 345 365 385  0
1000 11 -5 -25 -45 -65 -85 -105 -125 -145 -165 -185 -205 -225 -245 -265 -285 -305 -325 -345 -365 -385  0
1000 11 6 26 46 66 86 106 126 146 166 186 206 226 246 266 286 306 326 346 366 386  0
1000 9 -6 -26 -46 -66 -86 -106 -126 -146 -166 -186 -206 -226 -246 -266 -286 -306 -326 -346 -366 -386  0
1000 9 7 27 47 67 87 107 127 147 167 187 207 227 247 267 287 307 327 347 367 387  0
1000 11 -7 -27 -47 -67 -87 -107 -127 -147 -167 -187 -207 -227 -247 -267 -287 -307 -327 -347 -367 -387  0
1000 12 8 28 48 68 88 108 128 148 168 188 208 228 248 268 288 308 328 348 368 388  0
1000 8 -8 -28 -48 -68 -88 -108 -128 -148 -168 -188 -208 -228 -248 -268 -288 -308 -328 -348 -368 -388  0
1000 9 9 29 49 69 89 109 129 149 169 189 209 229 249 269 289 309 329 349 369 389  0
1000 11 -9 -29 -49 -69 -89 -109 -129 -149 -169 -189 -209 -229 -249 -269 -289 -309 -329 -349 -369 -389  0
1000 14 10 30 50 70 90 110 130 150 170 190 210 230 250 270 290 310 330 350 370 390  0
1000 6 -10 -30 -50 -70 -90 -110 -130 -150 -170 -190 -210 -230 -250 -270 -290 -310 -330 -350 -370 -390  0
1000 9 11 31 51 71 91 111 131 151 171 191 211 231 251 271 291 311 331 351 371 391  0
1000 11 -11 -31 -51 -71 -91 -111 -131 -151 -171 -191 -211 -231 -251 -271 -291 -311 -331 -351 -371 -391  0
1000 12 12 32 52 72 92 112 132 152 172 192 212 232 252 272 292 312 332 352 372 392  0
1000 8 -12 -32 -52 -72 -92 -112 -132 -152 -172 -192 -212 -232 -252 -272 -292 -312 -332 -352 -372 -392  0
1000 13 13 33 53 73 93 113 133 153 173 193 213 233 253 273 293 313 333 353 373 393  0
1000 7 -13 -33 -53 -73 -93 -113 -133 -153 -173 -193 -213 -233 -253 -273 -293 -313 -333 -353 -373 -393  0
1000 10 14 34 54 74 94 114 134 154 174 194 214 234 254 274 294 314 334 354 374 394  0
1000 10 -14 -34 -54 -74 -94 -114 -134 -154 -174 -194 -214 -234 -254 -274 -294 -314 -334 -354 -374 -394  0
1000 10 15 35 55 75 95 115 135 155 175 195 215 235 255 275 295 315 335 355 375 395  0
1000 10 -15 -35 -55 -75 -95 -115 -135 -155 -175 -195 -215 -235 -255 -275 -295 -315 -335 -355 -375 -395  0
1000 10 16 36 56 76 96 116 136 156 176 196 216 236 256 276 296 316 336 356 376 396  0
1000 10 -16 -36 -56 -76 -96 -116 -136 -156 -176 -196 -216 -236 -256 -276 -296 -316 -336 -356 -376 -396  0
1000 13 17 37 57 77 97 117 137 157 177 197 217 237 257 277 297 317 337 357 377 397  0
1000 7 -17 -37 -57 -77 -97 -117 -137 -157 -177 -197 -217 -237 -257 -277 -297 -317 -337 -357 -377 -397  0
1000 11 18 38 58 78 98 118 138 158 178 198 218 238 258 278 298 318 338 358 378 398  0
1000 9 -18 -38 -58 -78 -98 -118 -138 -158 -178 -198 -218 -238 -258 -278 -298 -318 -338 -358 -378 -398  0
1000 13 19 39 59 79 99 119 139 159 179 199 219 239 259 279 299 319 339 359 379 399  0
1000 7 -19 -39 -59 -79 -99 -119 -139 -159 -179 -199 -219 -239 -259 -279 -299 -319 -339 -359 -379 -399  0
1000 8 20 40 60 80 100 120 140 160 180 200 220 240 260 280 300 320 340 360 380 400  0
1000 12 -20 -40 -60 -80 -100 -120 -140 -160 -180 -200 -220 -240 -260 -280 -300 -320 -340 -360 -380 -400  0
1000 1 1  0
1000 1 21 2  0
1000 1 -21 -2  0
1000 1 41 22 3  0
1000 2 -41 -22 -3  0
1000 2 61 42 23 4  0
1000 2 -61 -42 -23 -4  0
1000 2 81 62 43 24 5  0
1000 3 -81 -62 -43 -24 -5  0
1000 2 101 82 63 44 25 6  0
1000 4 -101 -82 -63 -44 -25 -6  0
1000 3 121 102 83 64 45 26 7  0
1000 4 -121 -102 -83 -64 -45 -26 -7  0
1000 4 141 122 103 84 65 46 27 8  0
1000 4 -141 -122 -103 -84 -65 -46 -27 -8  0
1000 5 161 142 123 104 85 66 47 28 9  0
1000 4 -161 -142 -123 -104 -85 -66 -47 -28 -9  0
1000 4 181 162 143 124 105 86 67 48 29 10  0
1000 6 -181 -162 -143 -124 -105 -86 -67 -48 -29 -10  0
1000 4 201 182 163 144 125 106 87 68 49 30 11  0
1000 7 -201 -182 -163 -144 -125 -106 -87 -68 -49 -30 -11  0
1000 7 221 202 183 164 145 126 107 88 69 50 31 12  0
1000 5 -221 -202 -183 -164 -145 -126 -107 -88 -69 -50 -31 -12  0
1000 6 241 222 203 184 165 146 127 108 89 70 51 32 13  0
1000 7 -241 -222 -203 -184 -165 -146 -127 -108 -89 -70 -51 -32 -13  0
1000 8 261 242 223 204 185 166 147 128 109 90 71 52 33 14  0
1000 6 -261 -242 -223 -204 -185 -166 -147 -128 -109 -90 -71 -52 -33 -14  0
1000 8 281 262 243 224 205 186 167 148 129 110 91 72 53 34 15  0
1000 7 -281 -262 -243 -224 -205 -186 -167 -148 -129 -110 -91 -72 -53 -34 -15  0
1000 7 301 282 263 244 225 206 187 168 149 130 111 92 73 54 35 16  0
1000 9 -301 -282 -263 -244 -225 -206 -187 -168 -149 -130 -111 -92 -73 -54 -35 -16  0
1000 5 321 302 283 264 245 226 207 188 169 150 131 112 93 74 55 36 17  0
1000 12 -321 -302 -283 -264 -245 -226 -207 -188 -169 -150 -131 -112 -93 -74 -55 -36 -17  0
1000 9 341 322 303 284 265 246 227 208 189 170 151 132 113 94 75 56 37 18  0
1000 9 -341 -322 -303 -284 -265 -246 -227 -208 -189 -170 -151 -132 -113 -94 -75 -56 -37 -18  0
1000 9 361 342 323 304 285 266 247 228 209 190 171 152 133 114 95 76 57 38 19  0
1000 10 -361 -342 -323 -304 -285 -266 -247 -228 -209 -190 -171 -152 -133 -114 -95 -76 -57 -38 -19  0
1000 9 381 362 343 324 305 286 267 248 229 210 191 172 153 134 115 96 77 58 39 20  0
1000 11 -381 -362 -343 -324 -305 -286 -267 -248 -229 -210 -191 -172 -153 -134 -115 -96 -77 -58 -39 -20  0
1000 12 40 59 78 97 116 135 154 173 192 211 230 249 268 287 306 325 344 363 382  0
1000 7 -40 -59 -78 -97 -116 -135 -154 -173 -192 -211 -230 -249 -268 -287 -306 -325 -344 -363 -382  0
1000 15 60 79 98 117 136 155 174 193 212 231 250 269 288 307 326 345 364 383  0
1000 3 -60 -79 -98 -117 -136 -155 -174 -193 -212 -231 -250 -269 -288 -307 -326 -345 -364 -383  0
1000 12 80 99 118 137 156 175 194 213 232 251 270 289 308 327 346 365 384  0
1000 5 -80 -99 -118 -137 -156 -175 -194 -213 -232 -251 -270 -289 -308 -327 -346 -365 -384  0
1000 5 100 119 138 157 176 195 214 233 252 271 290 309 328 347 366 385  0
1000 11 -100 -119 -138 -157 -176 -195 -214 -233 -252 -271 -290 -309 -328 -347 -366 -385  0
1000 7 120 139 158 177 196 215 234 253 272 291 310 329 348 367 386  0
1000 8 -120 -139 -158 -177 -196 -215 -234 -253 -272 -291 -310 -329 -348 -367 -386  0
1000 9 140 159 178 197 216 235 254 273 292 311 330 349 368 387  0
1000 5 -140 -159 -178 -197 -216 -235 -254 -273 -292 -311 -330 -349 -368 -387  0
1000 8 160 179 198 217 236 255 274 293 312 331 350 369 388  0
1000 5 -160 -179 -198 -217 -236 -255 -274 -293 -312 -331 -350 -369 -388  0
1000 5 180 199 218 237 256 275 294 313 332 351 370 389  0
1000 7 -180 -199 -218 -237 -256 -275 -294 -313 -332 -351 -370 -389  0
1000 7 200 219 238 257 276 295 314 333 352 371 390  0
1000 4 -200 -219 -238 -257 -276 -295 -314 -333 -352 -371 -390  0
1000 8 220 239 258 277 296 315 334 353 372 391  0
1000 2 -220 -239 -258 -277 -296 -315 -334 -353 -372 -391  0
1000 4 240 259 278 297 316 335 354 373 392  0
1000 5 -240 -259 -278 -297 -316 -335 -354 -373 -392  0
1000 3 260 279 298 317 336 355 374 393  0
1000 5 -260 -279 -298 -317 -336 -355 -374 -393  0
1000 4 280 299 318 337 356 375 394  0
1000 3 -280 -299 -318 -337 -356 -375 -394  0
1000 3 300 319 338 357 376 395  0
1000 3 -300 -319 -338 -357 -376 -395  0
1000 2 320 339 358 377 396  0
1000 3 -320 -339 -358 -377 -396  0
1000 2 340 359 378 397  0
1000 2 -340 -359 -378 -397  0
1000 2 360 379 398  0
1000 1 -360 -379 -398  0
1000 1 380 399  0
1000 1 -380 -399  0
1000 1 400  0
1000 12 1 22 43 64 85 106 127 148 169 190 211 232 253 274 295 316 337 358 379 400  0
1000 8 -1 -22 -43 -64 -85 -106 -127 -148 -169 -190 -211 -232 -253 -274 -295 -316 -337 -358 -379 -400  0
1000 12 21 42 63 84 105 126 147 168 189 210 231 252 273 294 315 336 357 378 399  0
1000 7 -21 -42 -63 -84 -105 -126 -147 -168 -189 -210 -231 -252 -273 -294 -315 -336 -357 -378 -399  0
1000 11 41 62 83 104 125 146 167 188 209 230 251 272 293 314 335 356 377 398  0
1000 7 -41 -62 -83 -104 -125 -146 -167 -188 -209 -230 -251 -272 -293 -314 -335 -356 -377 -398  0
1000 11 61 82 103 124 145 166 187 208 229 250 271 292 313 334 355 376 397  0
1000 6 -61 -82 -103 -124 -145 -166 -187 -208 -229 -250 -271 -292 -313 -334 -355 -376 -397  0
1000 8 81 102 123 144 165 186 207 228 249 270 291 312 333 354 375 396  0
1000 8 -81 -102 -123 -144 -165 -186 -207 -228 -249 -270 -291 -312 -333 -354 -375 -396  0
1000 11 101 122 143 164 185 206 227 248 269 290 311 332 353 374 395  0
1000 4 -101 -122 -143 -164 -185 -206 -227 -248 -269 -290 -311 -332 -353 -374 -395  0
1000 3 121 142 163 184 205 226 247 268 289 310 331 352 373 394  0
1000 11 -121 -142 -163 -184 -205 -226 -247 -268 -289 -310 -331 -352 -373 -394  0
1000 5 141 162 183 204 225 246 267 288 309 330 351 372 393  0
1000 8 -141 -162 -183 -204 -225 -246 -267 -288 -309 -330 -351 -372 -393  0
1000 6 161 182 203 224 245 266 287 308 329 350 371 392  0
1000 6 -161 -182 -203 -224 -245 -266 -287 -308 -329 -350 -371 -392  0
1000 5 181 202 223 244 265 286 307 328 349 370 391  0
1000 6 -181 -202 -223 -244 -265 -286 -307 -328 -349 -370 -391  0
1000 6 201 222 243 264 285 306 327 348 369 390  0
1000 4 -201 -222 -243 -264 -285 -306 -327 -348 -369 -390  0
1000 6 221 242 263 284 305 326 347 368 389  0
1000 3 -221 -242 -263 -284 -305 -326 -347 -368 -389  0
1000 4 241 262 283 304 325 346 367 388  0
1000 4 -241 -262 -283 -304 -325 -346 -367 -388  0
1000 3 261 282 303 324 345 366 387  0
1000 4 -261 -282 -303 -324 -345 -366 -387  0
1000 4 281 302 323 344 365 386  0
1000 2 -281 -302 -323 -344 -365 -386  0
1000 2 301 322 343 364 385  0
1000 3 -301 -322 -343 -364 -385  0
1000 1 321 342 363 384  0
1000 3 -321 -342 -363 -384  0
1000 1 341 362 383  0
1000 2 -341 -362 -383  0
1000 1 361 382  0
1000 1 -361 -382  0
1000 1 -381  0
1000 6 2 23 44 65 86 107 128 149 170 191 212 233 254 275 296 317 338 359 380  0
1000 13 -2 -23 -44 -65 -86 -107 -128 -149 -170 -191 -212 -233 -254 -275 -296 -317 -338 -359 -380  0
1000 11 3 24 45 66 87 108 129 150 171 192 213 234 255 276 297 318 339 360  0
1000 7 -3 -24 -45 -66 -87 -108 -129 -150 -171 -192 -213 -234 -255 -276 -297 -318 -339 -360  0
1000 8 4 25 46 67 88 109 130 151 172 193 214 235 256 277 298 319 340  0
1000 9 -4 -25 -46 -67 -88 -109 -130 -151 -172 -193 -214 -235 -256 -277 -298 -319 -340  0
1000 6 5 26 47 68 89 110 131 152 173 194 215 236 257 278 299 320  0
1000 10 -5 -26 -47 -68 -89 -110 -131 -152 -173 -194 -215 -236 -257 -278 -299 -320  0
1000 8 6 27 48 69 90 111 132 153 174 195 216 237 258 279 300  0
1000 7 -6 -27 -48 -69 -90 -111 -132 -153 -174 -195 -216 -237 -258 -279 -300  0
1000 7 7 28 49 70 91 112 133 154 175 196 217 238 259 280  0
1000 7 -7 -28 -49 -70 -91 -112 -133 -154 -175 -196 -217 -238 -259 -280  0
1000 6 8 29 50 71 92 113 134 155 176 197 218 239 260  0
1000 7 -8 -29 -50 -71 -92 -113 -134 -155 -176 -197 -218 -239 -260  0
1000 6 9 30 51 72 93 114 135 156 177 198 219 240  0
1000 6 -9 -30 -51 -72 -93 -114 -135 -156 -177 -198 -219 -240  0
1000 4 10 31 52 73 94 115 136 157 178 199 220  0
1000 7 -10 -31 -52 -73 -94 -115 -136 -157 -178 -199 -220  0
1000 6 11 32 53 74 95 116 137 158 179 200  0
1000 4 -11 -32 -53 -74 -95 -116 -137 -158 -179 -200  0
1000 6 12 33 54 75 96 117 138 159 180  0
1000 3 -12 -33 -54 -75 -96 -117 -138 -159 -180  0
1000 6 13 34 55 76 97 118 139 160  0
1000 2 -13 -34 -55 -76 -97 -118 -139 -160  0
1000 5 14 35 56 77 98 119 140  0
1000 2 -14 -35 -56 -77 -98 -119 -140  0
1000 2 15 36 57 78 99 120  0
1000 4 -15 -36 -57 -78 -99 -120  0
1000 3 16 37 58 79 100  0
1000 2 -16 -37 -58 -79 -100  0
1000 2 17 38 59 80  0
1000 2 -17 -38 -59 -80  0
1000 2 18 39 60  0
1000 1 -18 -39 -60  0
1000 1 19 40  0
1000 1 -19 -40  0
1000 1 -20  0
